; elbows-extensionXhalf-squats
(set-info :status unknown)
(set-logic QF_AUFLIRA)
(declare-fun |HandLeft Norm| () Real)
(declare-fun |HandLeft Z| () Real)
(declare-fun |SpineMid Norm| () Real)
(declare-fun |SpineShoulder Norm| () Real)
(declare-fun |ShoulderLeft Norm| () Real)
(declare-fun |ShoulderLeft Z| () Real)
(declare-fun |ElbowLeft Norm| () Real)
(declare-fun |WristLeft Norm| () Real)
(declare-fun |WristLeft Z| () Real)
(declare-fun |ElbowRight Norm| () Real)
(declare-fun |ShoulderRight Norm| () Real)
(declare-fun |ShoulderRight Z| () Real)
(declare-fun |HandLeft Y| () Real)
(declare-fun |ShoulderLeft Y| () Real)
(declare-fun |WristLeft Y| () Real)
(declare-fun |ShoulderRight Y| () Real)
(declare-fun |HandLeft X| () Real)
(declare-fun |ShoulderLeft X| () Real)
(declare-fun |WristLeft X| () Real)
(declare-fun |ShoulderRight X| () Real)
(declare-fun |ThumbRight Z| () Real)
(declare-fun |ThumbRight Y| () Real)
(declare-fun |ThumbRight X| () Real)
(assert
(let (($x6883 (and true true)))
(let (($x9026 (and $x6883 true)))
(let (($x13771 (and $x9026 true)))
(let (($x9593 (and $x13771 true)))
(let ((?x5357 (* |HandLeft Z| |HandLeft Norm|)))
(let ((?x4372 (* 0.0 |SpineMid Norm|)))
(let ((?x10834 (* 0.0 |SpineShoulder Norm|)))
(let ((?x420 (* |ShoulderLeft Z| |ShoulderLeft Norm|)))
(let ((?x7599 (* 0.0 |ElbowLeft Norm|)))
(let ((?x4542 (* |WristLeft Z| |WristLeft Norm|)))
(let ((?x4357 (+ 0.0 ?x5357)))
(let ((?x5452 (+ ?x4357 ?x4542)))
(let ((?x6633 (+ ?x5452 ?x7599)))
(let ((?x7830 (+ ?x6633 ?x420)))
(let ((?x9220 (+ ?x7830 ?x10834)))
(let ((?x8814 (+ ?x9220 ?x4372)))
(let ((?x9971 (+ ?x8814 ?x5357)))
(let ((?x5041 (* 0.0 |ElbowRight Norm|)))
(let ((?x4101 (* |ShoulderRight Z| |ShoulderRight Norm|)))
(let ((?x5002 (+ 0.0 ?x5041)))
(let ((?x10222 (+ ?x5002 ?x4101)))
(let ((?x8962 (+ ?x10222 ?x10834)))
(let ((?x8446 (+ ?x8962 ?x4372)))
(let ((?x3204 (+ ?x8446 ?x5041)))
(let ((?x3715 (- ?x3204 ?x9971)))
(let ((?x6211 (- 0.0 ?x3715)))
(let (($x9133 (>= ?x3715 0.0)))
(let ((?x7436 (ite $x9133 ?x3715 ?x6211)))
(let ((?x5556 (* |HandLeft Y| |HandLeft Norm|)))
(let ((?x9973 (* 1.0 |SpineMid Norm|)))
(let ((?x7483 (* 1.0 |SpineShoulder Norm|)))
(let ((?x417 (* |ShoulderLeft Y| |ShoulderLeft Norm|)))
(let ((?x7299 (* 1.0 |ElbowLeft Norm|)))
(let ((?x5443 (* |WristLeft Y| |WristLeft Norm|)))
(let ((?x3426 (+ 0.0 ?x5556)))
(let ((?x4574 (+ ?x3426 ?x5443)))
(let ((?x10817 (+ ?x4574 ?x7299)))
(let ((?x10905 (+ ?x10817 ?x417)))
(let ((?x9878 (+ ?x10905 ?x7483)))
(let ((?x4818 (+ ?x9878 ?x9973)))
(let ((?x4107 (+ ?x4818 ?x5556)))
(let ((?x985 (* 1.0 |ElbowRight Norm|)))
(let ((?x5302 (* |ShoulderRight Y| |ShoulderRight Norm|)))
(let ((?x11352 (+ 0.0 ?x985)))
(let ((?x1011 (+ ?x11352 ?x5302)))
(let ((?x4437 (+ ?x1011 ?x7483)))
(let ((?x6410 (+ ?x4437 ?x9973)))
(let ((?x5517 (+ ?x6410 ?x985)))
(let ((?x8899 (- ?x5517 ?x4107)))
(let ((?x2495 (- 0.0 ?x8899)))
(let (($x9345 (>= ?x8899 0.0)))
(let ((?x11496 (ite $x9345 ?x8899 ?x2495)))
(let ((?x5403 (* |HandLeft X| |HandLeft Norm|)))
(let ((?x416 (* |ShoulderLeft X| |ShoulderLeft Norm|)))
(let ((?x5524 (* |WristLeft X| |WristLeft Norm|)))
(let ((?x4526 (+ 0.0 ?x5403)))
(let ((?x4668 (+ ?x4526 ?x5524)))
(let ((?x7126 (+ ?x4668 ?x7599)))
(let ((?x3312 (+ ?x7126 ?x416)))
(let ((?x2455 (+ ?x3312 ?x10834)))
(let ((?x3145 (+ ?x2455 ?x4372)))
(let ((?x8982 (+ ?x3145 ?x5403)))
(let ((?x5113 (* |ShoulderRight X| |ShoulderRight Norm|)))
(let ((?x5070 (+ ?x5002 ?x5113)))
(let ((?x5376 (+ ?x5070 ?x10834)))
(let ((?x8888 (+ ?x5376 ?x4372)))
(let ((?x5400 (+ ?x8888 ?x5041)))
(let ((?x10013 (- ?x5400 ?x8982)))
(let ((?x3632 (- 0.0 ?x10013)))
(let (($x4754 (>= ?x10013 0.0)))
(let ((?x6864 (ite $x4754 ?x10013 ?x3632)))
(let (($x8752 (>= ?x6864 ?x11496)))
(let ((?x3830 (ite $x8752 ?x6864 ?x11496)))
(let (($x11569 (>= ?x3830 ?x7436)))
(let ((?x1306 (ite $x11569 ?x3830 ?x7436)))
(let (($x4458 (< ?x1306 (/ 1.0 5.0))))
(let (($x5265 (and true $x4458)))
(let (($x9856 (and $x6883 $x5265)))
(let (($x7686 (and $x9856 $x5265)))
(let (($x8987 (and $x7686 $x5265)))
(let ((?x9194 (- |ThumbRight Z| |ThumbRight Z|)))
(let ((?x8486 (- 0.0 ?x9194)))
(let (($x6679 (>= ?x9194 0.0)))
(let ((?x8796 (ite $x6679 ?x9194 ?x8486)))
(let ((?x7398 (- |ThumbRight Y| |ThumbRight Y|)))
(let ((?x2945 (- 0.0 ?x7398)))
(let (($x2946 (>= ?x7398 0.0)))
(let ((?x10061 (ite $x2946 ?x7398 ?x2945)))
(let ((?x9143 (- |ThumbRight X| |ThumbRight X|)))
(let ((?x8632 (- 0.0 ?x9143)))
(let (($x4961 (>= ?x9143 0.0)))
(let ((?x11066 (ite $x4961 ?x9143 ?x8632)))
(let (($x9863 (>= ?x11066 ?x10061)))
(let ((?x2010 (ite $x9863 ?x11066 ?x10061)))
(let (($x8858 (>= ?x2010 ?x8796)))
(let ((?x7351 (ite $x8858 ?x2010 ?x8796)))
(let (($x10727 (< ?x7351 15.0)))
(let (($x9765 (and $x10727)))
(and $x9765 $x8987 $x9593))))))))))))))))))))))))))))))))))))))))))))))))))))))))))))))))))))))))))))))))))))))))))))))))))))
(check-sat)
